(set-option :produce-models true); benchmark generated from python API
(set-info :status unknown)
(declare-fun l_0_0_12 () Real)
(declare-fun l_0_0_11 () Real)
(declare-fun l_0_0_10 () Real)
(declare-fun l_0_0_1 () Real)
(declare-fun l_0_0_4 () Real)
(declare-fun _a_0_ () Real)
(declare-fun l_0_0_7 () Real)
(declare-fun _a_1_ () Real)
(declare-fun _a_2_ () Real)
(declare-fun l_0_0_9 () Real)
(declare-fun l_0_0_8 () Real)
(declare-fun _a_3_ () Real)
(declare-fun _a_4_ () Real)
(declare-fun l_0_0_2 () Real)
(declare-fun _a_5_ () Real)
(declare-fun l_0_0_3 () Real)
(declare-fun l_0_0_5 () Real)
(declare-fun l_0_0_6 () Real)
(declare-fun l_0_1_7 () Real)
(declare-fun l_0_1_13 () Real)
(declare-fun l_0_1_1 () Real)
(declare-fun l_0_1_9 () Real)
(declare-fun l_0_1_8 () Real)
(declare-fun l_0_1_15 () Real)
(declare-fun l_0_1_14 () Real)
(declare-fun l_0_1_2 () Real)
(declare-fun l_0_1_3 () Real)
(declare-fun l_0_1_18 () Real)
(declare-fun l_0_1_17 () Real)
(declare-fun l_0_1_16 () Real)
(declare-fun l_0_1_12 () Real)
(declare-fun l_0_1_11 () Real)
(declare-fun l_0_1_10 () Real)
(declare-fun l_0_1_4 () Real)
(declare-fun l_0_1_6 () Real)
(declare-fun l_0_1_5 () Real)
(declare-fun l_0_2_18 () Real)
(declare-fun l_0_2_17 () Real)
(declare-fun l_0_2_16 () Real)
(declare-fun l_0_2_12 () Real)
(declare-fun l_0_2_11 () Real)
(declare-fun l_0_2_10 () Real)
(declare-fun l_0_2_4 () Real)
(declare-fun l_0_2_1 () Real)
(declare-fun l_0_2_6 () Real)
(declare-fun l_0_2_5 () Real)
(declare-fun l_0_2_15 () Real)
(declare-fun l_0_2_14 () Real)
(declare-fun l_0_2_9 () Real)
(declare-fun l_0_2_8 () Real)
(declare-fun l_0_2_2 () Real)
(declare-fun l_0_2_3 () Real)
(declare-fun l_0_2_13 () Real)
(declare-fun l_0_2_7 () Real)
(assert
 (let ((?x69 (* l_0_0_12 l_0_0_12)))
 (let ((?x67 (* l_0_0_11 l_0_0_11)))
 (let ((?x65 (* l_0_0_10 l_0_0_10)))
 (let ((?x63 (* l_0_0_1 l_0_0_1)))
 (let ((?x68 (- (- (+ (- _a_0_ (* (* 4.0 l_0_0_1) l_0_0_4)) ?x63) ?x65) ?x67)))
 (= (- ?x68 ?x69) 0.0)))))))
(assert
 (= (- _a_1_ (* l_0_0_7 l_0_0_7)) 0.0))
(assert
 (let ((?x122 (- (- _a_2_ (* (* 2.0 l_0_0_1) l_0_0_1)) (* (* 2.0 l_0_0_10) l_0_0_7))))
 (= ?x122 0.0)))
(assert
 (let ((?x140 (* l_0_0_9 l_0_0_9)))
 (let ((?x141 (- (- (+ _a_3_ (* l_0_0_1 l_0_0_1)) (* l_0_0_8 l_0_0_8)) ?x140)))
 (= ?x141 0.0))))
(assert
 (= (- _a_4_ (* (* 2.0 l_0_0_7) l_0_0_8)) 0.0))
(assert
 (let ((?x164 (- (- _a_5_ (* (* 4.0 l_0_0_1) l_0_0_2)) (* (* 2.0 l_0_0_10) l_0_0_8))))
 (= (- ?x164 (* (* 2.0 l_0_0_11) l_0_0_9)) 0.0)))
(assert
 (let ((?x117 (* 2.0 l_0_0_1)))
 (let ((?x188 (* ?x117 l_0_0_2)))
 (= ?x188 0.0))))
(assert
 (let ((?x117 (* 2.0 l_0_0_1)))
 (let ((?x190 (* ?x117 l_0_0_4)))
 (let ((?x197 (- (- ?x190 (* (* 2.0 l_0_0_2) l_0_0_2)) (* (* 2.0 l_0_0_3) l_0_0_3))))
 (= ?x197 0.0)))))
(assert
 (let ((?x206 (* l_0_0_3 l_0_0_3)))
 (let ((?x200 (* l_0_0_2 l_0_0_2)))
 (let ((?x213 (+ ?x200 ?x206)))
 (= ?x213 0.0)))))
(assert
 (let ((?x217 (+ (* (* 2.0 l_0_0_2) l_0_0_4) (* (* 2.0 l_0_0_3) l_0_0_5))))
 (= ?x217 0.0)))
(assert
 (let ((?x229 (* l_0_0_6 l_0_0_6)))
 (let ((?x227 (* l_0_0_5 l_0_0_5)))
 (let ((?x225 (* l_0_0_4 l_0_0_4)))
 (let ((?x206 (* l_0_0_3 l_0_0_3)))
 (let ((?x200 (* l_0_0_2 l_0_0_2)))
 (let ((?x213 (+ ?x200 ?x206)))
 (= (+ (+ (+ ?x213 ?x225) ?x227) ?x229) 0.0))))))))
(assert
 (let ((?x117 (* 2.0 l_0_0_1)))
 (let ((?x188 (* ?x117 l_0_0_2)))
 (let ((?x239 (- (- ?x188 (* (* 4.0 l_0_0_2) l_0_0_4)) (* (* 4.0 l_0_0_3) l_0_0_5))))
 (= ?x239 0.0)))))
(assert
 (let ((?x117 (* 2.0 l_0_0_1)))
 (let ((?x190 (* ?x117 l_0_0_4)))
 (let ((?x258 (- (- ?x190 (* (* 2.0 l_0_0_4) l_0_0_4)) (* (* 2.0 l_0_0_5) l_0_0_5))))
 (= (- ?x258 (* (* 2.0 l_0_0_6) l_0_0_6)) 0.0)))))
(assert
 (let ((?x217 (+ (* (* 2.0 l_0_0_2) l_0_0_4) (* (* 2.0 l_0_0_3) l_0_0_5))))
 (= ?x217 0.0)))
(assert
 (let ((?x229 (* l_0_0_6 l_0_0_6)))
 (= (+ (+ (* l_0_0_4 l_0_0_4) (* l_0_0_5 l_0_0_5)) ?x229) 0.0)))
(assert
 (>= l_0_0_1 0.0))
(assert
 (>= l_0_0_3 0.0))
(assert
 (>= l_0_0_6 0.0))
(assert
 (>= l_0_0_7 0.0))
(assert
 (>= l_0_0_9 0.0))
(assert
 (>= l_0_0_12 0.0))
(assert
 (let ((?x298 (+ (- (* (* (- _a_1_) l_0_1_1) l_0_1_1) (* l_0_1_13 l_0_1_13)) (* 1.0 (* l_0_1_7 l_0_1_7)))))
 (= (+ ?x298 3.0) 0.0)))
(assert
 (let ((?x324 (* l_0_1_15 l_0_1_15)))
 (let ((?x322 (* l_0_1_14 l_0_1_14)))
 (let ((?x317 (- (* (- _a_1_) (+ (* l_0_1_2 l_0_1_2) (* l_0_1_3 l_0_1_3))) (* (* _a_3_ l_0_1_1) l_0_1_1))))
 (let ((?x325 (- (- (- ?x317 (* (* (* 2.0 _a_4_) l_0_1_1) l_0_1_2)) ?x322) ?x324)))
 (let ((?x331 (+ (+ ?x325 (* 1.0 (* l_0_1_8 l_0_1_8))) (* 1.0 (* l_0_1_9 l_0_1_9)))))
 (= (- ?x331 1.0) 0.0)))))))
(assert
 (let ((?x390 (* l_0_1_18 l_0_1_18)))
 (let ((?x388 (* l_0_1_17 l_0_1_17)))
 (let ((?x386 (* l_0_1_16 l_0_1_16)))
 (let ((?x369 (* l_0_1_6 l_0_1_6)))
 (let ((?x370 (+ (+ (* l_0_1_4 l_0_1_4) (* l_0_1_5 l_0_1_5)) ?x369)))
 (let ((?x376 (- (- (* (* (- _a_0_) l_0_1_1) l_0_1_1) (* _a_1_ ?x370)) (* (* (* 2.0 _a_2_) l_0_1_1) l_0_1_4))))
 (let ((?x382 (+ (+ ?x376 (* 1.0 (* l_0_1_10 l_0_1_10))) (* 1.0 (* l_0_1_11 l_0_1_11)))))
 (let ((?x391 (- (- (- (+ ?x382 (* 1.0 (* l_0_1_12 l_0_1_12))) ?x386) ?x388) ?x390)))
 (= (- ?x391 1.0) 0.0))))))))))
(assert
 (let ((?x436 (- (* (* (* (- 2.0) _a_1_) l_0_1_1) l_0_1_4) (* (* _a_2_ l_0_1_1) l_0_1_1))))
 (let ((?x442 (- (+ ?x436 (* (* 2.0 l_0_1_10) l_0_1_7)) (* (* 2.0 l_0_1_13) l_0_1_16))))
 (= (+ ?x442 2.0) 0.0))))
(assert
 (let ((?x369 (* l_0_1_6 l_0_1_6)))
 (let ((?x370 (+ (+ (* l_0_1_4 l_0_1_4) (* l_0_1_5 l_0_1_5)) ?x369)))
 (let ((?x471 (+ (* (* 2.0 l_0_1_2) l_0_1_4) (* (* 2.0 l_0_1_3) l_0_1_5))))
 (let ((?x475 (- (- (* (* (* (- 2.0) _a_0_) l_0_1_1) l_0_1_2) (* _a_2_ ?x471)) (* _a_4_ ?x370))))
 (= (- ?x475 (* (* (* 2.0 _a_5_) l_0_1_1) l_0_1_4)) 0.0))))))
(assert
 (let ((?x369 (* l_0_1_6 l_0_1_6)))
 (let ((?x370 (+ (+ (* l_0_1_4 l_0_1_4) (* l_0_1_5 l_0_1_5)) ?x369)))
 (= (- (* (* (* (- 2.0) _a_0_) l_0_1_1) l_0_1_4) (* _a_2_ ?x370)) 0.0))))
(assert
 (let ((?x471 (+ (* (* 2.0 l_0_1_2) l_0_1_4) (* (* 2.0 l_0_1_3) l_0_1_5))))
 (let ((?x369 (* l_0_1_6 l_0_1_6)))
 (let ((?x370 (+ (+ (* l_0_1_4 l_0_1_4) (* l_0_1_5 l_0_1_5)) ?x369)))
 (let ((?x557 (- (* (- _a_0_) (+ (* l_0_1_2 l_0_1_2) (* l_0_1_3 l_0_1_3))) (* _a_3_ ?x370))))
 (= (- ?x557 (* _a_5_ ?x471)) 0.0))))))
(assert
 (let ((?x369 (* l_0_1_6 l_0_1_6)))
 (let ((?x370 (+ (+ (* l_0_1_4 l_0_1_4) (* l_0_1_5 l_0_1_5)) ?x369)))
 (let ((?x471 (+ (* (* 2.0 l_0_1_2) l_0_1_4) (* (* 2.0 l_0_1_3) l_0_1_5))))
 (let ((?x363 (- _a_0_)))
 (= (- (* ?x363 ?x471) (* _a_5_ ?x370)) 0.0))))))
(assert
 (let ((?x369 (* l_0_1_6 l_0_1_6)))
 (let ((?x370 (+ (+ (* l_0_1_4 l_0_1_4) (* l_0_1_5 l_0_1_5)) ?x369)))
 (let ((?x363 (- _a_0_)))
 (= (* ?x363 ?x370) 0.0)))))
(assert
 (let ((?x641 (- (* (* (* (- 2.0) _a_1_) l_0_1_1) l_0_1_2) (* (* _a_4_ l_0_1_1) l_0_1_1))))
 (let ((?x646 (+ (- ?x641 (* (* 2.0 l_0_1_13) l_0_1_14)) (* (* 2.0 l_0_1_7) l_0_1_8))))
 (= ?x646 0.0))))
(assert
 (let ((?x471 (+ (* (* 2.0 l_0_1_2) l_0_1_4) (* (* 2.0 l_0_1_3) l_0_1_5))))
 (let ((?x290 (- _a_1_)))
 (let ((?x670 (- (- (* ?x290 ?x471) (* (* (* 2.0 _a_2_) l_0_1_1) l_0_1_2)) (* (* (* 2.0 _a_4_) l_0_1_1) l_0_1_4))))
 (let ((?x675 (+ (- ?x670 (* (* _a_5_ l_0_1_1) l_0_1_1)) (* (* 2.0 l_0_1_10) l_0_1_8))))
 (let ((?x681 (- (+ ?x675 (* (* 2.0 l_0_1_11) l_0_1_9)) (* (* 2.0 l_0_1_14) l_0_1_16))))
 (= (- ?x681 (* (* 2.0 l_0_1_15) l_0_1_17)) 0.0)))))))
(assert
 (let ((?x471 (+ (* (* 2.0 l_0_1_2) l_0_1_4) (* (* 2.0 l_0_1_3) l_0_1_5))))
 (let ((?x735 (- (* (- _a_2_) (+ (* l_0_1_2 l_0_1_2) (* l_0_1_3 l_0_1_3))) (* (* (* 2.0 _a_3_) l_0_1_1) l_0_1_4))))
 (let ((?x739 (- (- ?x735 (* _a_4_ ?x471)) (* (* (* 2.0 _a_5_) l_0_1_1) l_0_1_2))))
 (= ?x739 0.0)))))
(assert
 (let ((?x783 (- (* (* (* (- 2.0) _a_3_) l_0_1_1) l_0_1_2) (* _a_4_ (+ (* l_0_1_2 l_0_1_2) (* l_0_1_3 l_0_1_3))))))
 (= ?x783 0.0)))
(assert
 (= (* (- _a_3_) (+ (* l_0_1_2 l_0_1_2) (* l_0_1_3 l_0_1_3))) 0.0))
(assert
 (let ((?x471 (+ (* (* 2.0 l_0_1_2) l_0_1_4) (* (* 2.0 l_0_1_3) l_0_1_5))))
 (let ((?x802 (- _a_3_)))
 (let ((?x815 (- (* ?x802 ?x471) (* _a_5_ (+ (* l_0_1_2 l_0_1_2) (* l_0_1_3 l_0_1_3))))))
 (= ?x815 0.0)))))
(assert
 (>= l_0_1_1 0.0))
(assert
 (>= l_0_1_3 0.0))
(assert
 (>= l_0_1_6 0.0))
(assert
 (>= l_0_1_7 0.0))
(assert
 (>= l_0_1_9 0.0))
(assert
 (>= l_0_1_12 0.0))
(assert
 (>= l_0_1_13 0.0))
(assert
 (>= l_0_1_15 0.0))
(assert
 (>= l_0_1_18 0.0))
(assert
 (let ((?x885 (* l_0_2_18 l_0_2_18)))
 (let ((?x883 (* l_0_2_17 l_0_2_17)))
 (let ((?x881 (* l_0_2_16 l_0_2_16)))
 (let ((?x870 (* (/ 50884213212401.0 5000000000000000.0) _a_5_)))
 (let ((?x867 (* (/ 253.0 1000000.0) _a_4_)))
 (let ((?x864 (* (/ 27162921.0 250000000000.0) _a_3_)))
 (let ((?x861 (* (/ 1287517.0 250000000000.0) _a_2_)))
 (let ((?x853 (* l_0_2_6 l_0_2_6)))
 (let ((?x854 (+ (+ (* l_0_2_4 l_0_2_4) (* l_0_2_5 l_0_2_5)) ?x853)))
 (let ((?x856 (- (+ (* (* (- _a_0_) l_0_2_1) l_0_2_1) (* (/ 12497347111777.0 12500000000000.0) _a_0_)) (* _a_1_ ?x854))))
 (let ((?x865 (+ (+ (- ?x856 (* (* (* 2.0 _a_2_) l_0_2_1) l_0_2_4)) ?x861) ?x864)))
 (let ((?x877 (- (- (- (+ ?x865 ?x867) ?x870) (* (* 1.0 l_0_2_10) l_0_2_10)) (* (* 1.0 l_0_2_11) l_0_2_11))))
 (let ((?x886 (- (- (- (- ?x877 (* (* 1.0 l_0_2_12) l_0_2_12)) ?x881) ?x883) ?x885)))
 (= ?x886 0.0)))))))))))))))
(assert
 (let ((?x967 (* (/ 12497251686731.0 12500000000000.0) _a_5_)))
 (let ((?x961 (* (/ 18721.0 1000000.0) _a_4_)))
 (let ((?x955 (* (/ 1036521.0 50000000.0) _a_3_)))
 (let ((?x952 (* (/ 158521169.0 250000000000.0) _a_2_)))
 (let ((?x946 (+ (* (* 2.0 l_0_2_2) l_0_2_4) (* (* 2.0 l_0_2_3) l_0_2_5))))
 (let ((?x941 (* (/ 207280909786429.0 10000000000000000.0) _a_0_)))
 (let ((?x950 (- (- ?x941 (* _a_1_ ?x946)) (* (* (* 2.0 _a_2_) l_0_2_1) l_0_2_2))))
 (let ((?x959 (- (- (- ?x950 ?x952) ?x955) (* (* (* 2.0 _a_4_) l_0_2_1) l_0_2_4))))
 (let ((?x971 (- (+ (- (- ?x959 ?x961) (* (* _a_5_ l_0_2_1) l_0_2_1)) ?x967) (* (* 2.0 l_0_2_10) l_0_2_8))))
 (let ((?x977 (- (- ?x971 (* (* 2.0 l_0_2_11) l_0_2_9)) (* (* 2.0 l_0_2_14) l_0_2_16))))
 (= (- ?x977 (* (* 2.0 l_0_2_15) l_0_2_17)) 0.0))))))))))))
(assert
 (let ((?x1084 (* (/ 51108943441.0 50000000000000.0) _a_5_)))
 (let ((?x946 (+ (* (* 2.0 l_0_2_2) l_0_2_4) (* (* 2.0 l_0_2_3) l_0_2_5))))
 (let ((?x1076 (* (/ 18721.0 500000.0) _a_3_)))
 (let ((?x1070 (* (/ 350475841.0 1000000000000.0) _a_2_)))
 (let ((?x1063 (* (/ 93562026018491.0 2500000000000000.0) _a_0_)))
 (let ((?x1068 (- ?x1063 (* _a_2_ (+ (* l_0_2_2 l_0_2_2) (* l_0_2_3 l_0_2_3))))))
 (let ((?x1077 (- (- (- ?x1068 ?x1070) (* (* (* 2.0 _a_3_) l_0_2_1) l_0_2_4)) ?x1076)))
 (let ((?x1082 (- (- ?x1077 (* _a_4_ ?x946)) (* (* (* 2.0 _a_5_) l_0_2_1) l_0_2_2))))
 (= (- ?x1082 ?x1084) 0.0))))))))))
(assert
 (let ((?x1163 (* (/ 37409384775463.0 2000000000000000.0) _a_5_)))
 (let ((?x853 (* l_0_2_6 l_0_2_6)))
 (let ((?x854 (+ (+ (* l_0_2_4 l_0_2_4) (* l_0_2_5 l_0_2_5)) ?x853)))
 (let ((?x1156 (* (/ 221771169.0 250000000000.0) _a_3_)))
 (let ((?x1153 (* (/ 4736413.0 500000000000.0) _a_2_)))
 (let ((?x946 (+ (* (* 2.0 l_0_2_2) l_0_2_4) (* (* 2.0 l_0_2_3) l_0_2_5))))
 (let ((?x1151 (- (- (* (* (* (- 2.0) _a_0_) l_0_2_1) l_0_2_2) (* (/ 31698152009291.0 25000000000000000.0) _a_0_)) (* _a_2_ ?x946))))
 (let ((?x1161 (- (- (+ (+ ?x1151 ?x1153) ?x1156) (* _a_4_ ?x854)) (* (* (* 2.0 _a_5_) l_0_2_1) l_0_2_4))))
 (= (- ?x1161 ?x1163) 0.0))))))))))
(assert
 (let ((?x1244 (* (/ 124973785829.0 12500000000000.0) _a_5_)))
 (let ((?x1241 (* (/ 5089.0 500000.0) _a_4_)))
 (let ((?x1238 (* (/ 5089.0 25000000.0) _a_3_)))
 (let ((?x1235 (* (/ 249973469579.0 250000000000.0) _a_2_)))
 (let ((?x1233 (- (- (* (/ 40707679574001.0 200000000000000000.0) _a_0_) (* (* (* 2.0 _a_1_) l_0_2_1) l_0_2_4)) (* (* _a_2_ l_0_2_1) l_0_2_1))))
 (let ((?x1247 (- (+ (- (- (+ ?x1233 ?x1235) ?x1238) ?x1241) ?x1244) (* (* 2.0 l_0_2_10) l_0_2_7))))
 (= (- ?x1247 (* (* 2.0 l_0_2_13) l_0_2_16)) 0.0))))))))
(assert
 (let ((?x1299 (* (/ 63230023432961.0 250000000000000000.0) _a_5_)))
 (let ((?x1296 (* (/ 1287517.0 250000000000.0) _a_3_)))
 (let ((?x1294 (* (/ 64009.0 1000000000000.0) _a_2_)))
 (let ((?x853 (* l_0_2_6 l_0_2_6)))
 (let ((?x854 (+ (+ (* l_0_2_4 l_0_2_4) (* l_0_2_5 l_0_2_5)) ?x853)))
 (let ((?x1292 (- (+ (* (* (* (- 2.0) _a_0_) l_0_2_1) l_0_2_4) (* (/ 51495149512751.0 5000000000000000000.0) _a_0_)) (* _a_2_ ?x854))))
 (= (+ (- (- ?x1292 ?x1294) ?x1296) ?x1299) 0.0))))))))
(assert
 (let ((?x946 (+ (* (* 2.0 l_0_2_2) l_0_2_4) (* (* 2.0 l_0_2_3) l_0_2_5))))
 (let ((?x1340 (* (/ 350475841.0 1000000000000.0) _a_3_)))
 (let ((?x853 (* l_0_2_6 l_0_2_6)))
 (let ((?x854 (+ (+ (* l_0_2_4 l_0_2_4) (* l_0_2_5 l_0_2_5)) ?x853)))
 (let ((?x1336 (* (/ 700086027943143.0 1000000000000000000.0) _a_0_)))
 (let ((?x1337 (- (* (- _a_0_) (+ (* l_0_2_2 l_0_2_2) (* l_0_2_3 l_0_2_3))) ?x1336)))
 (let ((?x1346 (+ (- (+ (- ?x1337 (* _a_3_ ?x854)) ?x1340) (* _a_5_ ?x946)) (* (/ 14823540664547.0 500000000000000000.0) _a_5_))))
 (= ?x1346 0.0)))))))))
(assert
 (let ((?x1405 (* (/ 104315317271.0 250000000000000000.0) _a_5_)))
 (let ((?x853 (* l_0_2_6 l_0_2_6)))
 (let ((?x854 (+ (+ (* l_0_2_4 l_0_2_4) (* l_0_2_5 l_0_2_5)) ?x853)))
 (let ((?x1400 (* (/ 4736413.0 500000000000.0) _a_3_)))
 (let ((?x1398 (* (/ 47339458409133.0 2500000000000000000.0) _a_0_)))
 (let ((?x946 (+ (* (* 2.0 l_0_2_2) l_0_2_4) (* (* 2.0 l_0_2_3) l_0_2_5))))
 (let ((?x363 (- _a_0_)))
 (= (- (- (- (+ (* ?x363 ?x946) ?x1398) ?x1400) (* _a_5_ ?x854)) ?x1405) 0.0)))))))))
(assert
 (let ((?x1441 (* (/ 127977891313853.0 1000000000000000000000.0) _a_0_)))
 (let ((?x853 (* l_0_2_6 l_0_2_6)))
 (let ((?x854 (+ (+ (* l_0_2_4 l_0_2_4) (* l_0_2_5 l_0_2_5)) ?x853)))
 (let ((?x363 (- _a_0_)))
 (let ((?x1447 (+ (+ (- (* ?x363 ?x854) ?x1441) (* (/ 64009.0 1000000000000.0) _a_3_)) (* (/ 977225403.0 500000000000000000.0) _a_5_))))
 (= ?x1447 0.0)))))))
(assert
 (let ((?x1483 (* l_0_2_15 l_0_2_15)))
 (let ((?x1481 (* l_0_2_14 l_0_2_14)))
 (let ((?x1479 (* (/ 527621.0 50000000.0) _a_5_)))
 (let ((?x1470 (* (/ 18721.0 1000000.0) _a_2_)))
 (let ((?x1467 (* (/ 1112484251041.0 10000000000000000.0) _a_0_)))
 (let ((?x1469 (- ?x1467 (* _a_1_ (+ (* l_0_2_2 l_0_2_2) (* l_0_2_3 l_0_2_3))))))
 (let ((?x1477 (- (+ (- (+ ?x1469 ?x1470) (* (* _a_3_ l_0_2_1) l_0_2_1)) _a_3_) (* (* (* 2.0 _a_4_) l_0_2_1) l_0_2_2))))
 (let ((?x1487 (- (- (- (+ ?x1477 ?x1479) ?x1481) ?x1483) (* (* 1.0 l_0_2_8) l_0_2_8))))
 (= (- ?x1487 (* (* 1.0 l_0_2_9) l_0_2_9)) 0.0))))))))))
(assert
 (let ((?x1540 (* (/ 18721.0 1000000.0) _a_5_)))
 (let ((?x1539 (- (- (* (/ 19404709641.0 50000000000000.0) _a_0_) (* (* (* 2.0 _a_3_) l_0_2_1) l_0_2_2)) (* _a_4_ (+ (* l_0_2_2 l_0_2_2) (* l_0_2_3 l_0_2_3))))))
 (= (+ ?x1539 ?x1540) 0.0))))
(assert
 (let ((?x1578 (* (/ 2054321.0 10000000000.0) _a_5_)))
 (let ((?x1572 (* (/ 1.0 50.0) _a_3_)))
 (let ((?x1569 (* (/ 1036521.0 100000000.0) _a_2_)))
 (let ((?x1570 (+ (- (* (/ 5274855369.0 2500000000000000.0) _a_0_) (* (* (* 2.0 _a_1_) l_0_2_1) l_0_2_2)) ?x1569)))
 (let ((?x1579 (+ (+ (- (+ ?x1570 ?x1572) (* (* _a_4_ l_0_2_1) l_0_2_1)) _a_4_) ?x1578)))
 (let ((?x1584 (- (- ?x1579 (* (* 2.0 l_0_2_13) l_0_2_14)) (* (* 2.0 l_0_2_7) l_0_2_8))))
 (= ?x1584 0.0))))))))
(assert
 (let ((?x1620 (* (/ 350475841.0 500000000000.0) _a_5_)))
 (let ((?x946 (+ (* (* 2.0 l_0_2_2) l_0_2_4) (* (* 2.0 l_0_2_3) l_0_2_5))))
 (let ((?x1614 (* (- (/ 38758637278219.0 1250000000000000000.0)) _a_0_)))
 (let ((?x1618 (- (- ?x1614 (* _a_3_ ?x946)) (* _a_5_ (+ (* l_0_2_2 l_0_2_2) (* l_0_2_3 l_0_2_3))))))
 (= (- ?x1618 ?x1620) 0.0))))))
(assert
 (let ((?x1661 (* (/ 350475841.0 1000000000000.0) _a_0_)))
 (let ((?x1663 (- ?x1661 (* _a_3_ (+ (* l_0_2_2 l_0_2_2) (* l_0_2_3 l_0_2_3))))))
 (= ?x1663 0.0))))
(assert
 (= (* (- (/ 6561258219361.0 500000000000000000.0)) _a_0_) 0.0))
(assert
 (= (+ (* (/ 6393154170117.0 8000000000000000000.0) _a_0_) (* (/ 6561258219361.0 1000000000000000000.0) _a_5_)) 0.0))
(assert
 (= (- (* (- (/ 180197214150431.0 10000000000000000000000.0)) _a_0_) (* (/ 266011163319.0 1000000000000000000.0) _a_5_)) 0.0))
(assert
 (= (+ (* (/ 22343206019563.0 125000000000000000000000.0) _a_0_) (* (/ 3594937467.0 1000000000000000000.0) _a_5_)) 0.0))
(assert
 (let ((?x1726 (* l_0_2_13 l_0_2_13)))
 (let ((?x1724 (* (/ 5089.0 5000000000.0) _a_5_)))
 (let ((?x1721 (* (/ 1.0 100.0) _a_4_)))
 (let ((?x1718 (* (/ 1.0 10000.0) _a_3_)))
 (let ((?x1715 (* (/ 5089.0 50000000.0) _a_2_)))
 (let ((?x1713 (+ (- (* (/ 25897921.0 2500000000000000.0) _a_0_) (* (* _a_1_ l_0_2_1) l_0_2_1)) _a_1_)))
 (let ((?x1730 (- (- (+ (+ (+ (+ ?x1713 ?x1715) ?x1718) ?x1721) ?x1724) ?x1726) (* (* 1.0 l_0_2_7) l_0_2_7))))
 (= ?x1730 0.0)))))))))
(assert
 (= (- (* (- (/ 82412675653.0 125000000000000000000000.0)) _a_0_) (* (/ 16194277.0 1000000000000000000.0) _a_5_)) 0.0))
(assert
 (= (* (/ 122833315124657.0 1000000000000000000000.0) _a_0_) 0.0))
(assert
 (= (* (- (/ 663999331799333.0 100000000000000000000000.0)) _a_0_) 0.0))
(assert
 (= (* (/ 67300824319707.0 500000000000000000000000.0) _a_0_) 0.0))
(assert
 (= (* (- (/ 303173059717.0 250000000000000000000000.0)) _a_0_) 0.0))
(assert
 (= (* (/ 4097152081.0 1000000000000000000000000.0) _a_0_) 0.0))
(assert
 (>= l_0_2_1 0.0))
(assert
 (>= l_0_2_3 0.0))
(assert
 (>= l_0_2_6 0.0))
(assert
 (>= l_0_2_7 0.0))
(assert
 (>= l_0_2_9 0.0))
(assert
 (>= l_0_2_12 0.0))
(assert
 (>= l_0_2_13 0.0))
(assert
 (>= l_0_2_15 0.0))
(assert
 (>= l_0_2_18 0.0))
(check-sat)
(get-model)